3 3 2
20 0 85 2 24 0 94 1 27 2 83 0 52 2 17 1 74 2 38 1 77 0 72 1 12 0 62 1 44 2 62 0 66 2 16 0 22 1 21 0 47 
20 2 90 1 29 0 89 1 91 2 62 0 35 1 6 2 36 0 71 2 81 1 25 0 82 1 35 2 47 1 11 0 78 2 92 1 60 2 47 0 95 
20 1 18 2 1 1 73 2 96 0 70 2 18 1 63 2 46 0 22 1 91 0 3 2 59 1 10 2 96 0 48 2 50 0 8 2 12 0 32 2 73 

-------------
